c read Graph
c width = 397
c time = 625 ms
c width = 22
c time = 813 ms
c width = 21
c time = 1360 ms
c width = 20
c time = 2187 ms
c width = 19
c time = 3677 ms
c width = 18
c time = 56255 ms
c width = 17
c time = 66911 ms
c width = 17
c time = 119906 ms
s td 578 18 606
b 1 75 223 492 601
b 2 223 335 433 492 601
b 3 164 223 335 433 436 541 601
b 4 164 223 335 436 524 541 601
b 5 164 223 436 484 524 541 601
b 6 164 223 328 484 524 541 601
b 7 164 184 223 328 484 524 601
b 8 21 134 164 184 200 223 328 484 524 557 566
b 9 21 134 164 200 361 557
b 10 134 200 361 557 599
b 11 200 361 557 581 599
b 12 361 557 574 581
b 13 108 361 581 599
b 14 21 26 31 34 134 184 200 221 223 241 328 449 484 524 557 566
b 15 21 26 31 34 134 184 200 221 223 241 328 449 484 524 526 566
b 16 34 134 526 555 566
b 17 34 190 526 555 566
b 18 190 238 526 555
b 19 134 526 527 555
b 20 21 26 31 134 184 200 221 241 328 429 449 484 524 526
b 21 21 26 134 184 193 200 221 241 328 429 449 484 524
b 22 21 26 134 193 202 221
b 23 26 134 182 193 202
b 24 26 182 193 202 435
b 25 14 26 202 435
b 26 25 182 202 435
b 27 21 65 184 193 200 328 449 484 524
b 28 21 65 184 328 484 524 548
b 29 21 65 328 484 522 524 548
b 30 21 65 329 484 522 524 548
b 31 21 65 313 329 484 522 548
b 32 21 65 312 313 329 522 548
b 33 65 217 312 313 329 522 548
b 34 151 217 312 313 522
b 35 151 312 313 522 576
b 36 94 151 312 522 576
b 37 37 94 151 576
b 38 65 217 329 481 548
b 39 65 329 343 481
b 40 65 187 481 548
b 41 21 312 472 522
b 42 26 31 34 79 134 184 221 241 281 328 449 484 524 557 566
b 43 79 139 221 241 281 328 524
b 44 79 117 139 221 241 328 524
b 45 47 79 117 139 221 241 524
b 46 47 117 139 221 241 348 524
b 47 117 221 348 490
b 48 47 93 117 139 241 348 524
b 49 9 47 93 139 241 524
b 50 9 93 139 241 405
b 51 9 93 241 405 414
b 52 93 298 405 414
b 53 47 93 117 348 547
b 54 47 93 547 604
b 55 117 348 356 547
b 56 47 53 117 547
b 57 26 31 34 79 134 184 281 328 449 484 524 557 566
b 58 23 26 30 31 34 79 124 134 184 281 328 449 484 524 557 571 580
b 59 23 30 31 34 79 124 134 184 214 281 328 449 484 503 524 557 571 580
b 60 23 30 31 79 124 134 184 214 281 328 449 484 503 524 557 571 580
b 61 23 24 30 31 79 124 134 184 214 224 281 328 449 484 503 524 571 580
b 62 23 24 30 31 79 124 184 214 224 281 328 484 503 524 571 580 584
b 63 23 24 30 31 79 124 184 205 214 281 328 484 501 503 524 571 580 584
b 64 23 24 30 31 124 184 205 214 328 484 501 503 524 553 571 580 584
b 65 79 205 281 328 358 501 524
b 66 79 205 264 281 358 501 524
b 67 79 205 264 275 281 358 501
b 68 79 205 211 264 275 358 501
b 69 99 211 264 275 501
b 70 99 264 404 501
b 71 52 99 275 501
b 72 79 205 211 218 264 358 501
b 73 41 79 205 211 218 358
b 74 41 205 218 458
b 75 41 126 211 218 358
b 76 41 126 213 218
b 77 126 138 211 358
b 78 41 126 208 358
b 79 30 79 178 184 214 224 281 328 484 503 524 571 580 584
b 80 3 30 178 214 224 503 571 580
b 81 3 30 178 214 224 349 571 580
b 82 3 30 178 214 224 349 510 571
b 83 3 178 349 403 510
b 84 3 214 349 371 510
b 85 1 3 349 510 571
b 86 79 145 178 184 281 484 524 584
b 87 79 145 178 184 484 496 524 584
b 88 79 145 178 184 391 484 496 584
b 89 120 145 391 484 496
b 90 145 242 391 496 584
b 91 79 145 391 496 536
b 92 24 64 79 128 134 184 214 224 281 364 449 484 503 571 579 580
b 93 24 64 128 134 214 254 364 503 571 579 580
b 94 214 254 503 579 594
b 95 203 214 503 579 594
b 96 58 203 214 579 594
b 97 13 58 203 579 594
b 98 13 45 58 203 594
b 99 13 45 58 517
b 100 45 58 203 384 594
b 101 45 58 353 384 594
b 102 58 327 353 384 594
b 103 58 175 327 353 384
b 104 175 326 327 384
b 105 58 146 175 327 353
b 106 122 146 175 353
b 107 146 175 327 420
b 108 58 146 353 437
b 109 45 58 353 562
b 110 24 64 128 134 254 309 364 571 579 580
b 111 128 134 254 309 365 571 579 580
b 112 128 309 365 509 571 580
b 113 309 464 509 571 580
b 114 137 309 464 571 580
b 115 62 137 309 464 571
b 116 62 137 309 464 550
b 117 57 62 309 550
b 118 62 137 284 464 550
b 119 62 284 425 464 550
b 120 62 284 425 464 549
b 121 62 284 388 425 549
b 122 62 284 293 388 549
b 123 284 293 318 549
b 124 62 279 293 388 549
b 125 62 279 388 400
b 126 279 293 416 549
b 127 279 293 388 544
b 128 128 365 563 571 579 580
b 129 248 365 563 579
b 130 12 128 563 571 580
b 131 12 498 563 571 580
b 132 12 147 498 563 571
b 133 12 147 397 498 563
b 134 147 367 397 498 563
b 135 147 367 441 498 563
b 136 147 196 367 441 563
b 137 147 196 441 563 603
b 138 129 441 563 603
b 139 147 196 441 471 603
b 140 147 196 288 471 603
b 141 196 288 351 471
b 142 258 288 471 603
b 143 441 471 508 603
b 144 441 482 498 563
b 145 24 64 254 309 364 439
b 146 171 254 309 439
b 147 24 64 364 439 462
b 148 24 64 302 364 462
b 149 271 302 364 462
b 150 24 64 79 128 184 224 281 364 449 484 500 513 579
b 151 24 64 128 184 197 224 364 449 484 500 513 579
b 152 24 128 197 297 500
b 153 24 197 268 297 500
b 154 230 268 297 500
b 155 128 189 297 500
b 156 24 64 133 184 197 224 364 449 484 500 513 579
b 157 24 64 133 184 197 224 321 364 484 500 513 579
b 158 24 133 184 197 224 274 321 364 484 500 513 579
b 159 224 274 321 379 513
b 160 24 133 184 272 274 321 364 484 500 579
b 161 116 184 272 274 484 500
b 162 116 184 274 390 484
b 163 109 116 184 274 390
b 164 109 116 274 336 390
b 165 116 336 390 407
b 166 109 274 336 390 561
b 167 255 274 336 390 561
b 168 255 336 390 561 597
b 169 142 255 561 597
b 170 255 336 390 489 597
b 171 336 390 469 489
b 172 222 255 390 489 597
b 173 222 390 463 489
b 174 222 235 255 597
b 175 43 222 489 597
b 176 184 272 321 352 364 484
b 177 24 133 272 461 579
b 178 24 133 272 393 461
b 179 24 61 133 393
b 180 105 133 393 461
b 181 64 133 197 346 449
b 182 79 121 281 364 500 513
b 183 23 30 34 124 214 459 503 557
b 184 23 30 34 124 214 265 459 557
b 185 23 30 34 124 249 265 459 557
b 186 19 34 124 249
b 187 23 30 161 249 265 459 557
b 188 23 30 161 249 265 301 459
b 189 30 161 249 265 301 459 559
b 190 30 249 265 301 398 459 559
b 191 186 265 301 398 559
b 192 89 186 301 559
b 193 186 265 323 398
b 194 179 186 265 301
b 195 30 69 249 265 398 459
b 196 69 249 398 459 570
b 197 249 430 459 570
b 198 69 249 331 570
b 199 161 301 546 559
b 200 23 26 30 34 124 229 571 580
b 201 23 30 34 229 345 571 580
b 202 23 30 229 345 571 577 580
b 203 23 30 229 345 502 571 577
b 204 23 229 345 431 502 571 577
b 205 229 345 431 502 515 571 577
b 206 44 345 431 515
b 207 229 431 475 502 515 571 577
b 208 229 440 475 577
b 209 176 431 475 502 515 571
b 210 176 431 447 475 502 515
b 211 176 215 447 475 502
b 212 87 176 215 447
b 213 111 431 447 515
b 214 136 176 431 447
b 215 229 465 475 502
b 216 26 124 212 229
b 217 23 26 30 124 127 557 571 580
b 218 49 124 127 557
b 219 23 26 30 127 263 571 580
b 220 23 26 30 127 157 263 580
b 221 23 26 127 152 157 263 580
b 222 23 26 35 127 152 157 263
b 223 26 35 127 152 157 263 586
b 224 35 127 152 157 263 314 586
b 225 127 152 157 314 362
b 226 127 131 152 314 362
b 227 127 131 152 362 417
b 228 16 131 362 417
b 229 35 195 263 314 586
b 230 35 195 263 314 531
b 231 194 195 314 531
b 232 18 26 127 157 263 586
b 233 18 263 575 586
b 234 164 223 330 335 433 436 541
b 235 164 330 436 476
b 236 330 433 436 499 541
b 237 154 330 433 436 499
b 238 135 154 433 499
b 239 223 252 335 492
b 240 38 433 492 601
b 241 23 30 232 451 505 568 571 580 584
b 242 23 24 30 31 124 184 205 214 328 460 484 501 524 553 568 571 580 584
b 243 23 24 30 31 124 184 205 232 328 460 484 501 505 524 568 571 580 584
b 244 24 31 124 184 205 232 267 328 369 460 484 501 505 524 568
b 245 24 31 124 184 205 232 328 460 484 501 505 524 568 571 580 584
b 246 23 30 214 376 460 553 568
b 247 23 30 214 283 376 460 553
b 248 23 30 84 283 376 460 553
b 249 23 30 84 283 372 376 553
b 250 23 84 276 283 372 376 553
b 251 84 276 283 355 372 376 553
b 252 55 84 276 283 355 372 553
b 253 55 84 372 553 602
b 254 84 167 372 602
b 255 84 319 553 602
b 256 55 140 276 283 355
b 257 51 140 276 283
b 258 36 140 283 355
b 259 55 140 207 276
b 260 104 283 355 376
b 261 24 124 149 184 205 232 250 267 328 369 460 484 501 505 524 568
b 262 149 184 328 369 408 484 524
b 263 149 184 234 369 408 484 524
b 264 81 149 184 234 369 408 484
b 265 81 149 234 369 382 408 484
b 266 81 234 369 382 408 484 494
b 267 42 234 382 408 484 494
b 268 42 382 408 494 573
b 269 42 210 408 494 573
b 270 78 210 494 573
b 271 81 234 310 369 494
b 272 81 303 310 369
b 273 234 310 442 494
b 274 76 234 310 369
b 275 102 149 382 408
b 276 184 250 267 315 328 484 524
b 277 150 184 250 267 315 328 484
b 278 123 150 250 267 315 328 484
b 279 123 150 250 267 315 484 512
b 280 123 150 267 287 315 484 512
b 281 39 123 287 315 484 512
b 282 39 123 287 304 512
b 283 39 287 304 558
b 284 20 123 304 512
b 285 39 123 304 556
b 286 150 267 287 315 538
b 287 267 315 438 538
b 288 150 267 538 567
b 289 123 250 493 512
b 290 8 24 124 149 205 232 250 267 369 460 501 505 568
b 291 8 24 149 205 232 250 267 369 460 486 501 505 568
b 292 8 205 250 455 460 486 505
b 293 8 205 250 399 455 486
b 294 8 399 413 455 486
b 295 8 389 413 486
b 296 80 413 455 486
b 297 90 455 460 505
b 298 8 24 149 205 232 250 267 369 396 486 501 568
b 299 8 149 250 342 396 568
b 300 8 82 342 396 568
b 301 82 342 396 535 568
b 302 59 82 342 535
b 303 257 342 535 568
b 304 8 24 149 205 232 296 369 396 486 501
b 305 24 204 296 396 486
b 306 8 100 149 205 232 296
b 307 8 100 159 232 296
b 308 159 232 295 296
b 309 5 8 159 296
b 310 23 30 232 378 451 505 571 580 584
b 311 23 30 378 505 511 571 580
b 312 23 30 378 434 505 511 580
b 313 23 30 359 378 434 505 511
b 314 23 306 359 378 434 505 511
b 315 23 166 306 359 434 505 511
b 316 23 166 306 434 505 511 529
b 317 23 160 166 505 511 529
b 318 160 166 466 511 529
b 319 160 166 392 466 511
b 320 46 166 392 466
b 321 160 168 505 529
b 322 166 306 359 434 578
b 323 166 198 306 359 578
b 324 198 216 306 359 578
b 325 173 198 216 578
b 326 23 30 232 378 451 571 580 595
b 327 23 30 418 451 571 580 595
b 328 23 30 259 418 451 580 595
b 329 23 169 259 418 451 580 595
b 330 23 169 259 338 418 451 595
b 331 119 169 259 338 451
b 332 101 119 259 451
b 333 119 181 259 338
b 334 119 169 320 451
b 335 23 163 169 338 418 451 595
b 336 23 68 163 338 418 595
b 337 68 163 338 418 427
b 338 68 338 380 418 427
b 339 33 338 380 427
b 340 68 163 266 595
b 341 56 232 378 595
b 342 245 451 568 584
b 343 184 321 352 484 487
b 344 79 121 281 308 513
b 345 79 121 262 308 513
b 346 121 262 308 421 513
b 347 262 299 308 421 513
b 348 236 262 299 421 513
b 349 11 236 262 421
b 350 236 262 299 513 592
b 351 236 262 444 592
b 352 191 236 299 513 592
b 353 15 191 236 299 592
b 354 15 191 299 406
b 355 15 71 191 592
b 356 15 32 236 592
b 357 121 220 262 421
b 358 321 352 474 484 487
b 359 88 321 352 474 487
b 360 88 321 474 487 540
b 361 88 321 474 540 552
b 362 88 332 474 540 552
b 363 88 332 448 474
b 364 280 332 474 540 552
b 365 130 280 332 474 552
b 366 48 130 280 552
b 367 130 201 332 474
b 368 130 251 280 332
b 369 280 539 540 552
b 370 88 290 352 474
b 371 333 575 586
b 372 506 546 559
b 373 50 539 552
b 374 518 526 527
b 375 60 508 603
b 376 496 520 524
b 377 419 493 512
b 378 377 482 563
b 379 273 465 475
b 380 106 463 489
b 381 354 448 474
b 382 383 438 538
b 383 91 434 505
b 384 246 433 541
b 385 387 408 573
b 386 4 404 501
b 387 183 399 455
b 388 63 390 469
b 389 389 486 565
b 390 156 388 400
b 391 384 483 594
b 392 372 376 394
b 393 67 367 397
b 394 339 364 439
b 395 361 478 574
b 396 353 437 443
b 397 317 352 487
b 398 95 349 580
b 399 206 348 490
b 400 177 346 449
b 401 345 412 577
b 402 17 343 481
b 403 240 338 418
b 404 336 407 488
b 405 331 551 570
b 406 97 330 476
b 407 326 327 542
b 408 321 540 543
b 409 226 320 451
b 410 319 385 602
b 411 318 468 549
b 412 312 316 472
b 413 306 491 578
b 414 292 304 556
b 415 143 303 369
b 416 299 454 513
b 417 114 298 414
b 418 231 293 416
b 419 288 351 591
b 420 287 315 395
b 421 284 464 533
b 422 279 544 554
b 423 274 467 561
b 424 260 272 461
b 425 271 462 470
b 426 267 495 567
b 427 243 265 323
b 428 110 258 471
b 429 148 257 342
b 430 153 249 430
b 431 248 256 579
b 432 6 245 568
b 433 192 242 584
b 434 73 241 405
b 435 141 238 555
b 436 236 444 497
b 437 235 291 597
b 438 234 442 589
b 439 230 253 297
b 440 54 229 440
b 441 98 224 379
b 442 223 252 322
b 443 220 421 572
b 444 218 458 583
b 445 155 217 329
b 446 215 363 502
b 447 214 371 514
b 448 211 275 545
b 449 180 207 276
b 450 103 205 264
b 451 201 332 519
b 452 200 307 599
b 453 198 277 359
b 454 197 268 373
b 455 195 263 360
b 456 194 531 585
b 457 192 239 584
b 458 192 242 432
b 459 192 269 432
b 460 27 191 406
b 461 190 282 566
b 462 189 368 500
b 463 184 391 456
b 464 182 193 564
b 465 181 259 528
b 466 179 186 424
b 467 2 178 403
b 468 178 225 328
b 469 70 175 420
b 470 173 216 532
b 471 162 171 254
b 472 169 270 595
b 473 168 334 529
b 474 166 278 511
b 475 164 244 335
b 476 112 163 266
b 477 161 341 459
b 478 160 347 466
b 479 159 170 295
b 480 154 436 606
b 481 151 313 375
b 482 150 250 525
b 483 113 147 196
b 484 22 145 281
b 485 115 142 255
b 486 139 221 600
b 487 138 358 605
b 488 137 309 530
b 489 29 136 447
b 490 135 199 499
b 491 134 365 588
b 492 131 152 294
b 493 130 251 411
b 494 129 227 441
b 495 128 174 509
b 496 127 325 362
b 497 126 208 247
b 498 7 122 146
b 499 121 308 560
b 500 120 402 484
b 501 117 356 537
b 502 111 422 431
b 503 109 116 523
b 504 108 386 581
b 505 105 393 587
b 506 83 104 355
b 507 102 382 479
b 508 101 119 590
b 509 74 100 232
b 510 98 379 445
b 511 98 224 300
b 512 98 300 534
b 513 98 507 534
b 514 94 370 522
b 515 90 460 485
b 516 77 89 301
b 517 88 290 446
b 518 87 96 176
b 519 84 165 167
b 520 82 305 396
b 521 81 149 350
b 522 80 144 413
b 523 79 219 536
b 524 78 210 285
b 525 76 310 381
b 526 75 86 492
b 527 69 289 398
b 528 68 427 521
b 529 65 72 187
b 530 64 233 302
b 531 62 425 473
b 532 61 133 477
b 533 59 209 535
b 534 58 453 562
b 535 57 516 550
b 536 56 378 504
b 537 55 366 553
b 538 53 547 593
b 539 52 99 132
b 540 51 140 374
b 541 49 452 557
b 542 28 48 280
b 543 47 85 604
b 544 46 344 392
b 545 45 337 517
b 546 44 340 515
b 547 43 222 457
b 548 42 410 494
b 549 41 213 228
b 550 39 107 558
b 551 38 598 601
b 552 37 415 576
b 553 36 283 311
b 554 35 314 324
b 555 33 237 380
b 556 32 92 592
b 557 31 286 429
b 558 30 423 510
b 559 26 212 569
b 560 25 357 435
b 561 24 125 204
b 562 23 40 224
b 563 21 548 596
b 564 10 20 123
b 565 19 34 261
b 566 18 157 582
b 567 16 417 480
b 568 15 71 401
b 569 14 118 202
b 570 13 203 428
b 571 12 188 498
b 572 11 172 262
b 573 9 93 409
b 574 8 124 450
b 575 5 296 426
b 576 3 158 503
b 577 2 185 403
b 578 1 66 571
1 526
1 2
2 239
2 240
2 3
3 475
3 384
3 234
3 4
4 5
5 6
6 7
7 8
8 14
8 9
9 10
10 452
10 11
11 12
11 13
12 395
13 504
14 42
14 15
15 16
15 20
16 17
16 19
17 461
17 18
18 435
19 374
20 557
20 21
21 22
21 27
22 23
23 464
23 24
24 26
24 25
25 569
26 560
27 28
28 563
28 29
29 30
30 31
31 32
32 41
32 33
33 445
33 38
33 34
34 481
34 35
35 36
36 514
36 37
37 552
38 39
38 40
39 402
40 529
41 412
42 57
42 43
43 486
43 44
44 45
45 46
46 48
46 47
47 399
48 53
48 49
49 573
49 50
50 434
50 51
51 52
52 417
53 56
53 55
53 54
54 543
55 501
56 538
57 58
58 200
58 217
58 59
59 183
59 60
60 61
61 562
61 92
61 62
62 79
62 63
63 65
63 64
64 242
65 66
66 450
66 67
67 68
68 448
68 72
68 69
69 70
69 71
70 386
71 539
72 73
73 75
73 74
74 444
75 77
75 78
75 76
76 549
77 487
78 497
79 468
79 80
79 86
80 576
80 81
81 398
81 82
82 558
82 83
82 84
82 85
83 467
84 447
85 578
86 484
86 87
87 376
87 88
88 463
88 90
88 91
88 89
89 500
90 433
91 523
92 93
92 150
93 94
93 110
94 95
95 96
96 97
97 570
97 98
98 99
98 100
99 545
100 391
100 101
101 109
101 102
102 103
103 104
103 105
104 407
105 108
105 107
105 106
106 498
107 469
108 396
109 534
110 145
110 111
111 491
111 128
111 112
112 495
112 113
113 114
114 488
114 115
115 116
116 117
116 118
117 535
118 421
118 119
119 531
119 120
120 121
121 122
122 123
122 124
123 411
124 127
124 126
124 125
125 390
126 418
127 422
128 130
128 129
129 431
130 131
131 571
131 132
132 133
133 134
134 393
134 135
135 136
135 144
136 483
136 137
137 139
137 138
138 494
139 140
139 143
140 141
140 142
141 419
142 428
143 375
144 378
145 394
145 146
145 147
146 471
147 148
148 530
148 149
149 425
150 151
150 182
151 152
151 156
152 155
152 153
153 454
153 154
154 439
155 462
156 157
156 181
157 158
158 160
158 159
159 441
160 161
160 176
160 177
161 162
162 163
163 503
163 164
164 165
164 166
165 404
166 423
166 167
167 168
168 170
168 169
169 485
170 171
170 172
171 388
172 175
172 174
172 173
173 380
174 437
175 547
176 343
177 424
177 178
178 179
178 180
179 532
180 505
181 400
182 344
183 184
184 185
185 187
185 186
186 565
187 477
187 188
188 189
189 190
189 199
190 191
190 195
191 194
191 192
191 193
192 516
193 427
194 466
195 527
195 196
196 198
196 197
197 430
198 405
199 372
200 201
200 216
201 202
202 401
202 203
203 204
204 205
205 207
205 206
206 546
207 208
207 209
207 215
208 440
209 210
210 211
210 213
210 214
211 446
211 212
212 518
213 502
214 489
215 379
216 559
217 219
217 218
218 541
219 220
220 221
221 222
222 223
223 224
223 232
224 554
224 229
224 225
225 496
225 226
226 492
226 227
227 228
228 567
229 455
229 230
230 231
231 456
232 566
232 233
233 371
234 235
234 236
235 406
236 237
237 480
237 238
238 490
239 442
240 551
241 342
241 310
241 243
242 246
242 243
243 245
244 261
244 245
246 247
247 248
248 249
249 392
249 250
250 251
251 252
251 260
252 537
252 253
252 256
253 254
253 255
254 519
255 410
256 258
256 259
256 257
257 540
258 553
259 449
260 506
261 290
261 276
261 262
262 263
263 264
264 521
264 265
265 275
265 266
266 267
266 271
267 548
267 268
268 385
268 269
269 270
270 524
271 274
271 273
271 272
272 415
273 438
274 525
275 507
276 277
277 482
277 278
278 279
279 289
279 280
280 420
280 281
280 286
281 282
282 283
282 284
282 285
283 550
284 564
285 414
286 287
286 288
287 382
288 426
289 377
290 574
290 291
291 292
291 298
292 297
292 293
293 387
293 294
294 295
294 296
295 389
296 522
297 515
298 299
298 304
299 300
300 520
300 301
301 302
301 303
302 533
303 429
304 305
304 306
305 561
306 509
306 307
307 308
307 309
308 479
309 575
310 311
310 326
311 312
312 383
312 313
313 314
314 315
315 474
315 322
315 316
316 317
317 318
317 321
318 478
318 319
319 320
320 544
321 473
322 413
322 323
323 453
323 324
324 325
325 470
326 341
326 327
327 328
328 329
329 472
329 330
330 403
330 331
330 335
331 332
331 333
331 334
332 508
333 465
334 409
335 336
336 337
336 340
337 528
337 338
338 339
339 555
340 476
341 536
342 432
343 397
343 358
344 499
344 345
345 346
346 357
346 347
347 416
347 348
348 349
348 350
349 572
350 351
350 352
351 436
352 353
353 356
353 355
353 354
354 460
355 568
356 556
357 443
358 359
359 370
359 360
360 408
360 361
361 362
362 363
362 364
363 381
364 369
364 365
365 366
365 368
365 367
366 542
367 451
368 493
369 373
370 517
433 458
433 457
441 511
441 510
458 459
467 577
511 512
512 513
